98 100
44 12 1
54 96 1
41 12 1
98 28 1
42 39 1
67 63 1
45 45 1
65 51 1
1 29 1
42 43 1
10 40 1
47 38 1
22 86 1
29 35 1
91 47 1
89 85 1
4 42 1
27 38 1
83 16 1
43 96 1
48 17 1
36 3 1
25 46 1
8 75 1
4 3 1
8 29 1
37 38 1
35 47 1
22 50 1
41 77 1
10 41 1
24 41 1
1 10 1
35 17 1
45 6 1
24 46 1
42 31 2
42 29 1
42 33 1
37 14 1
45 75 1
10 2 1
50 80 1
10 43 1
9 8 1
39 36 1
20 22 1
97 33 1
35 14 1
30 33 1
2 34 1
43 36 1
22 32 1
83 91 1
45 7 1
2 49 1
21 11 1
48 11 2
50 43 1
22 25 1
32 2 1
24 42 1
17 39 1
53 62 1
5 5 1
12 90 1
46 48 1
39 19 1
12 40 1
36 18 1
4 22 1
35 45 1
23 7 1
37 50 1
21 44 1
95 33 1
46 35 1
66 44 1
100 28 1
12 32 1
31 24 1
26 49 1
40 24 1
43 43 1
27 83 1
12 16 1
35 16 1
35 39 1
11 96 1
6 50 1
39 50 1
5 75 1
21 34 1
31 31 1
5 46 1
36 50 1
95 36 1
78 23 1
100 100 
100 100 
100 100 
100 100 
100 100 
100 100 
100 100 
100 100 
100 100 
100 100 
100 100 
100 100 
100 100 
100 100 
100 100 
100 100 
100 100 
100 100 
100 100 
100 100 
100 100 
100 100 
100 100 
100 100 
100 100 
100 100 
100 100 
100 100 
100 100 
100 100 
100 100 
100 100 
100 100 
100 100 
100 100 
100 100 
100 100 
100 100 
100 100 
100 100 
100 100 
100 100 
100 100 
100 100 
100 100 
100 100 
100 100 
100 100 
100 100 
100 100 
100 100 
100 100 
100 100 
100 100 
100 100 
100 100 
100 100 
100 100 
100 100 
100 100 
100 100 
100 100 
100 100 
100 100 
100 100 
100 100 
100 100 
100 100 
100 100 
100 100 
100 100 
100 100 
100 100 
100 100 
100 100 
100 100 
100 100 
100 100 
100 100 
100 100 
100 100 
100 100 
100 100 
100 100 
100 100 
100 100 
100 100 
100 100 
100 100 
100 100 
100 100 
100 100 
100 100 
100 100 
100 100 
100 100 
100 100 
100 100 
100 100 
100 100 
100 100 
